
mapping with 16 threads...

 0:00:00.69 Mapping INCOV093-BL.extracted.fq.gz to NUC reference...

 0:07:41.50 Generating binary hit matrix.
0:07:41.54 Loading /labs/khatrilab/solomonb/covid/isb/optitype/INCOV093-BL_1.bam started. Number of HLA reads loaded (updated every thousand):
1K...2K...3K...4K...5K...6K...7K...8K...9K...10K...11K...12K...13K...14K...15K...16K...17K...18K...19K...20K...21K...22K...23K...24K...25K...26K...27K...28K...29K...30K...31K...32K...33K...34K...35K...36K...37K...38K...39K...40K...41K...42K...43K...44K...45K...46K...47K...48K...49K...50K...51K...52K...53K...54K...55K...56K...57K...58K...59K...60K...61K...62K...63K...64K...65K...66K...67K...68K...69K...70K...71K...72K...73K...74K...75K...76K...77K...78K...79K...80K...81K...82K...83K...84K...85K...86K...87K...88K...89K...90K...91K...92K...93K...94K...95K...96K...97K...98K...99K...100K...101K...102K...103K...104K...105K...106K...107K...108K...109K...110K...111K...112K...113K...114K...115K...116K...117K...118K...119K...120K...121K...122K...123K...124K...125K...126K...127K...128K...129K...130K...131K...132K...133K...134K...135K...136K...137K...138K...139K...140K...141K...142K...143K...144K...145K...146K...147K...148K...149K...150K...151K...152K...153K...154K...155K...156K...157K...158K...159K...160K...161K...162K...163K...164K...165K...166K...167K...
 0:08:46.53 167186 reads loaded. Creating dataframe...
0:25:50.37 Dataframes created. Shape: 167186 x 7339, hits: 55235580 (55903067), sparsity: 1 in 21.95

 0:26:52.30 temporary pruning of identical rows and columns

 0:26:55.45 Size of mtx with unique rows and columns: (3405, 1953)
0:26:55.45 determining minimal set of non-overshadowed alleles

 0:27:42.80 Keeping only the minimal number of required alleles (931,)

 0:27:43.67 Creating compact model...

starting ilp solver with 1 threads...

 0:30:09.16 Initializing OptiType model...
GLPSOL: GLPK LP/MIP Solver, v4.57
Parameter(s) specified in the command line:
 --write /tmp/tmpnR498R.glpk.raw --wglp /tmp/tmpSAVCF2.glpk.glp --cpxlp /tmp/tmpo96JvV.pyomo.lp
Reading problem data from '/tmp/tmpo96JvV.pyomo.lp'...
/tmp/tmpo96JvV.pyomo.lp:158540: warning: lower bound of variable 'x9259' redefined
/tmp/tmpo96JvV.pyomo.lp:158540: warning: upper bound of variable 'x9259' redefined
9258 rows, 5557 columns, 120577 non-zeros
3243 integer variables, all of which are binary
161783 lines were read
Writing problem data to '/tmp/tmpSAVCF2.glpk.glp'...
151591 lines were written
GLPK Integer Optimizer, v4.57
9258 rows, 5557 columns, 120577 non-zeros
3243 integer variables, all of which are binary
Preprocessing...
2096 hidden covering inequaliti(es) were detected
9257 rows, 5556 columns, 120576 non-zeros
3243 integer variables, all of which are binary
Scaling...
 A: min|aij| =  1.000e+00  max|aij| =  4.000e+00  ratio =  4.000e+00
Problem data seem to be well scaled
Constructing initial basis...
Size of triangular part is 9257
Solving LP relaxation...
GLPK Simplex Optimizer, v4.57
9257 rows, 5556 columns, 120576 non-zeros
      0: obj =  -0.000000000e+00 inf =   4.000e+00 (4)
      4: obj =  -0.000000000e+00 inf =   0.000e+00 (0)
*   500: obj =   9.795084320e+04 inf =   3.600e-15 (2164) 1
*  1000: obj =   1.132920350e+05 inf =   2.493e-14 (1829) 1
*  1500: obj =   1.172164260e+05 inf =   2.675e-14 (1429) 1
*  2000: obj =   1.177974840e+05 inf =   1.911e-14 (1155)
*  2500: obj =   1.179347660e+05 inf =   2.253e-14 (923)
*  3000: obj =   1.181184100e+05 inf =   2.057e-14 (691)
*  3500: obj =   1.185865200e+05 inf =   7.286e-14 (193)
*  3694: obj =   1.187244870e+05 inf =   2.348e-13 (0)
OPTIMAL LP SOLUTION FOUND
Integer optimization begins...
+  3694: mip =     not found yet <=              +inf        (1; 0)
+  3694: >>>>>   1.187244870e+05 <=   1.187244870e+05   0.0% (1; 0)
+  3694: mip =   1.187244870e+05 <=     tree is empty   0.0% (0; 1)
INTEGER OPTIMAL SOLUTION FOUND
Time used:   1.1 secs
Memory used: 24.7 Mb (25936608 bytes)
Writing MIP solution to '/tmp/tmpnR498R.glpk.raw'...
14817 lines were written

 0:30:26.18 Result dataframe has been constructed...
